1
0 0
1 1
251
252
0 1
1 2
250
251
0 2
1 3
249
250
0 3
1 4
248
249
0 4
1 5
247
248
0 5
1 6
246
247
0 6
1 7
245
246
0 7
1 8
244
245
0 8
1 9
243
244
0 9
1 10
242
243
0 10
1 11
241
242
0 11
1 12
240
241
0 12
1 13
239
240
0 13
1 14
238
239
0 14
1 15
237
238
0 15
1 16
236
237
0 16
1 17
235
236
0 17
1 18
234
235
0 18
1 19
233
234
0 19
1 20
232
233
0 20
1 21
231
232
0 21
1 22
230
231
0 22
1 23
229
230
0 23
1 24
228
229
0 24
1 25
227
228
0 25
1 26
226
227
0 26
1 27
225
226
0 27
1 28
224
225
0 28
1 29
223
224
0 29
1 30
222
223
0 30
1 31
221
222
0 31
1 32
220
221
0 32
1 33
219
220
0 33
1 34
218
219
0 34
1 35
217
218
0 35
1 36
216
217
0 36
1 37
215
216
0 37
1 38
214
215
0 38
1 39
213
214
0 39
1 40
212
213
0 40
1 41
211
212
0 41
1 42
210
211
0 42
1 43
209
210
0 43
1 44
208
209
0 44
1 45
207
208
0 45
1 46
206
207
0 46
1 47
205
206
0 47
1 48
204
205
0 48
1 49
203
204
0 49
1 50
202
203
0 50
1 51
201
202
0 51
1 52
200
201
0 52
1 53
199
200
0 53
1 54
198
199
0 54
1 55
197
198
0 55
1 56
196
197
0 56
1 57
195
196
0 57
1 58
194
195
0 58
1 59
193
194
0 59
1 60
192
193
0 60
1 61
191
192
0 61
1 62
190
191
0 62
1 63
189
190
0 63
1 64
188
189
0 64
1 65
187
188
0 65
1 66
186
187
0 66
1 67
185
186
0 67
1 68
184
185
0 68
1 69
183
184
0 69
1 70
182
183
0 70
1 71
181
182
0 71
1 72
180
181
0 72
1 73
179
180
0 73
1 74
178
179
0 74
1 75
177
178
0 75
1 76
176
177
0 76
1 77
175
176
0 77
1 78
174
175
0 78
1 79
173
174
0 79
1 80
172
173
0 80
1 81
171
172
0 81
1 82
170
171
0 82
1 83
169
170
0 83
1 84
168
169
0 84
1 85
167
168
0 85
1 86
166
167
0 86
1 87
165
166
0 87
1 88
164
165
0 88
1 89
163
164
0 89
1 90
162
163
0 90
1 91
161
162
0 91
1 92
160
161
0 92
1 93
159
160
0 93
1 94
158
159
0 94
1 95
157
158
0 95
1 96
156
157
0 96
1 97
155
156
0 97
1 98
154
155
0 98
1 99
153
154
0 99
1 100
152
153
0 100
1 101
151
152
0 101
1 102
150
151
0 102
1 103
149
150
0 103
1 104
148
149
0 104
1 105
147
148
0 105
1 106
146
147
0 106
1 107
145
146
0 107
1 108
144
145
0 108
1 109
143
144
0 109
1 110
142
143
0 110
1 111
141
142
0 111
1 112
140
141
0 112
1 113
139
140
0 113
1 114
138
139
0 114
1 115
137
138
0 115
1 116
136
137
0 116
1 117
135
136
0 117
1 118
134
135
0 118
1 119
133
134
0 119
1 120
132
133
0 120
1 121
131
132
0 121
1 122
130
131
0 122
1 123
129
130
0 123
1 124
128
129
0 124
1 125
127
128
0 125
1 126
126
127
0 126
1 127
125
126
0 127
1 128
124
125
0 128
1 129
123
124
0 129
1 130
122
123
0 130
1 131
121
122
0 131
1 132
120
121
0 132
1 133
119
120
0 133
1 134
118
119
0 134
1 135
117
118
0 135
1 136
116
117
0 136
1 137
115
116
0 137
1 138
114
115
0 138
1 139
113
114
0 139
1 140
112
113
0 140
1 141
111
112
0 141
1 142
110
111
0 142
1 143
109
110
0 143
1 144
108
109
0 144
1 145
107
108
0 145
1 146
106
107
0 146
1 147
105
106
0 147
1 148
104
105
0 148
1 149
103
104
0 149
1 150
102
103
0 150
1 151
101
102
0 151
1 152
100
101
0 152
1 153
99
100
0 153
1 154
98
99
0 154
1 155
97
98
0 155
1 156
96
97
0 156
1 157
95
96
0 157
1 158
94
95
0 158
1 159
93
94
0 159
1 160
92
93
0 160
1 161
91
92
0 161
1 162
90
91
0 162
1 163
89
90
0 163
1 164
88
89
0 164
1 165
87
88
0 165
1 166
86
87
0 166
1 167
85
86
0 167
1 168
84
85
0 168
1 169
83
84
0 169
1 170
82
83
0 170
1 171
81
82
0 171
1 172
80
81
0 172
1 173
79
80
0 173
1 174
78
79
0 174
1 175
77
78
0 175
1 176
76
77
0 176
1 177
75
76
0 177
1 178
74
75
0 178
1 179
73
74
0 179
1 180
72
73
0 180
1 181
71
72
0 181
1 182
70
71
0 182
1 183
69
70
0 183
1 184
68
69
0 184
1 185
67
68
0 185
1 186
66
67
0 186
1 187
65
66
0 187
1 188
64
65
0 188
1 189
63
64
0 189
1 190
62
63
0 190
1 191
61
62
0 191
1 192
60
61
0 192
1 193
59
60
0 193
1 194
58
59
0 194
1 195
57
58
0 195
1 196
56
57
0 196
1 197
55
56
0 197
1 198
54
55
0 198
1 199
53
54
0 199
1 200
52
53
0 200
1 201
51
52
0 201
1 202
50
51
0 202
1 203
49
50
0 203
1 204
48
49
0 204
1 205
47
48
0 205
1 206
46
47
0 206
1 207
45
46
0 207
1 208
44
45
0 208
1 209
43
44
0 209
1 210
42
43
0 210
1 211
41
42
0 211
1 212
40
41
0 212
1 213
39
40
0 213
1 214
38
39
0 214
1 215
37
38
0 215
1 216
36
37
0 216
1 217
35
36
0 217
1 218
34
35
0 218
1 219
33
34
0 219
1 220
32
33
0 220
1 221
31
32
0 221
1 222
30
31
0 222
1 223
29
30
0 223
1 224
28
29
0 224
1 225
27
28
0 225
1 226
26
27
0 226
1 227
25
26
0 227
1 228
24
25
0 228
1 229
23
24
0 229
1 230
22
23
0 230
1 231
21
22
0 231
1 232
20
21
0 232
1 233
19
20
0 233
1 234
18
19
0 234
1 235
17
18
0 235
1 236
16
17
0 236
1 237
15
16
0 237
1 238
14
15
0 238
1 239
13
14
0 239
1 240
12
13
0 240
1 241
11
12
0 241
1 242
10
11
0 242
1 243
9
10
0 243
1 244
8
9
0 244
1 245
7
8
0 245
1 246
6
7
0 246
1 247
5
6
0 247
1 248
4
5
0 248
1 249
3
4
0 249
1 250
2
3
0 250
1 251
1
2
0 251
1 252
0
1
